
<<< setup

Tried aggregator 1 time.
MIP Presolve modified 28565 coefficients.
Reduced MIP has 227100 rows, 217000 columns, and 861000 nonzeros.
Reduced MIP has 7000 binaries, 0 generals, 0 SOSs, and 0 indicators.
Presolve time = 1,67 sec. (319,63 ticks)
Found incumbent of value 1680,326002 after 6,01 sec. (1180,82 ticks)
Probing changed sense of 7000 constraints.
Probing time = 8,57 sec. (263,66 ticks)
Tried aggregator 1 time.
MIP Presolve eliminated 7000 rows and 6930 columns.
Reduced MIP has 220100 rows, 210070 columns, and 847000 nonzeros.
Reduced MIP has 70 binaries, 0 generals, 0 SOSs, and 0 indicators.
Presolve time = 2,90 sec. (450,19 ticks)
Probing time = 0,30 sec. (12,58 ticks)
MIP emphasis: balance optimality and feasibility.
MIP search method: dynamic search.
Parallel mode: deterministic, using up to 20 threads.
Root relaxation solution time = 76,92 sec. (10960,18 ticks)

        Nodes                                         Cuts/
   Node  Left     Objective  IInf  Best Integer    Best Bound    ItCnt     Gap

*     0+    0                         1680,3260        0,0000           100,00%
*     0+    0                         1047,9449        0,0000           100,00%
      0     0      152,0204    22     1047,9449      152,0204       94   85,49%
      0     0      158,8942    15     1047,9449    Cuts: 3022    14513   84,84%
      0     0      159,5241    14     1047,9449     Cuts: 960    19564   84,78%
      0     0      159,6363    18     1047,9449     Cuts: 761    21570   84,77%
*     0+    0                          162,1796      159,6363             1,57%
      0     0      159,7133    16      162,1796     Cuts: 706    23789    1,52%
      0     0      159,7343    14      162,1796     Cuts: 180    24715    1,51%
      0     0      159,7450    19      162,1796      Cuts: 57    25324    1,50%
      0     0      159,7530    14      162,1796     Cuts: 138    25831    1,50%
      0     0      159,7554    18      162,1796      Cuts: 35    26066    1,49%
*     0+    0                          161,3004      159,7554             0,96%
Heuristic still looking.
Heuristic still looking.
      0     2      159,7554    18      161,3004      159,7554    26066    0,96%
Elapsed time = 1576,79 sec. (254743,66 ticks, tree = 0,00 MB, solutions = 4)
      1     3      159,7572    13      161,3004      159,7554    26365    0,96%
      2     4      160,0254    10      161,3004      159,7555    29390    0,96%
      3     3        cutoff            161,3004      159,7555    32907    0,96%
      4     2        cutoff            161,3004      159,7555    36801    0,96%
      5     3      161,0597     9      161,3004      159,7555    56291    0,96%
      6     4      160,4805    10      161,3004      159,7555    74551    0,96%
      7     5      160,6057     5      161,3004      160,4805    83987    0,51%
      8     6      161,2926     8      161,3004      160,4805    96727    0,51%
      9     5        cutoff            161,3004      160,4805   105802    0,51%
     10     6      160,7027     4      161,3004      160,4805   127819    0,51%
Elapsed time = 2260,46 sec. (375784,18 ticks, tree = 0,08 MB, solutions = 4)
     12     4        cutoff            161,3004      160,4805   145739    0,51%
     13     5      160,8159     1      161,3004      160,4805   147702    0,51%
     14     6      160,9886     2      161,3004      160,4805   149518    0,51%
     15     5        cutoff            161,3004      160,4805   153411    0,51%
     16     6      161,1780     2      161,3004      160,4805   156883    0,51%
     17     5        cutoff            161,3004      160,4805   157338    0,51%
     18     4        cutoff            161,3004      160,4805   157917    0,51%
     19     4      161,0008     1      161,3004      160,4805   158332    0,51%
     20     3        cutoff            161,3004      160,4805   159128    0,51%
     21     2        cutoff            161,3004      160,9905   162464    0,19%
Elapsed time = 2313,17 sec. (383611,85 ticks, tree = 0,08 MB, solutions = 4)

Implied bound cuts applied:  1374
Flow cuts applied:  69
Mixed integer rounding cuts applied:  1036

Root node processing (before b&c):
  Real time             = 1571,59 sec. (254502,17 ticks)
Parallel b&c, 20 threads:
  Real time             =  742,07 sec. (129232,90 ticks)
  Sync time (average)   =  680,09 sec.
  Wait time (average)   =  681,71 sec.
                          ------------
Total (root+branch&cut) = 2313,66 sec. (383735,07 ticks)
-- Objective = 161.3
-- Solving time ~= 2318328.137939453ms
main returns 0

<<< main


<<< done

